name	xcoord	ycoord	start	end	service
0	0	0	0	2000	0
1	-79	-91	412	522	7
2	28	67	383	437	20
3	28	-29	442	519	24
4	87	60	474	499	23
5	98	55	219	326	10
6	41	48	125	217	1
7	60	-100	644	840	21
8	32	-39	1770	1932	7
9	64	-33	134	251	2
10	-93	15	969	1094	5
11	64	-68	694	881	22
12	4	40	694	888	7
13	14	-15	724	796	10
14	95	-42	1974	2180	17
15	-76	-64	1758	1873	8
16	-81	13	1921	2006	13
17	61	-42	1826	1920	4
18	13	2	717	789	4
19	-92	50	365	569	4
20	96	31	979	1164	12
21	-55	87	195	314	21
22	-87	-15	1026	1112	22
23	39	-25	1684	1732	1
24	2	-79	1570	1791	14
25	10	-26	41	173	20
26	-79	63	1794	1938	2
27	-84	93	527	581	11
28	-4	-12	955	1094	1
29	-54	-53	119	262	4
30	-32	-48	533	627	13
